column=11;
row=11;
Board=[|4,0,2,0,11,0,0,10,9,6,0|1,2,5,0,0,10,0,8,0,9,0|3,0,1,0,0,0,2,11,0,0,5|0,10,7,0,8,11,0,0,3,0,0|10,6,0,8,2,0,0,0,7,0,0|0,0,6,0,9,0,8,0,0,0,0|2,0,11,4,5,0,0,3,6,8,0|9,3,10,2,4,0,5,0,1,11,0|0,7,0,0,0,0,11,0,0,0,0|5,11,3,0,0,0,7,0,0,4,0|7,0,8,0,0,0,6,9,0,0,4|];
horizontal=[|1,0,1,1,2,2,1,0,2,0|0,1,2,0,1,2,0,1,2,2|1,2,1,1,0,0,1,0,0,2|1,2,2,0,1,2,2,2,0,0|0,0,2,2,0,2,0,1,0,1|0,1,1,2,2,0,0,0,1,1|0,0,2,1,1,0,0,1,1,1|0,1,2,0,1,0,1,2,0,0|2,0,1,0,0,1,2,0,0,2|1,0,0,0,0,0,0,1,2,0|2,0,0,2,1,0,1,1,0,1|];
vertical=[|0,0,0,2,0,1,0,0,0,0,1|1,1,0,1,0,2,2,0,0,0,2|1,0,1,2,0,1,1,2,0,2,0|0,2,0,0,0,2,0,2,0,0,0|0,0,0,0,1,0,0,1,2,2,0|2,0,0,0,2,1,0,0,0,0,0|1,0,2,0,0,2,2,1,0,0,0|0,1,2,0,2,2,0,2,0,0,0|0,1,2,0,0,0,0,2,1,2,1|1,2,0,0,0,0,2,0,0,2,2|];
